problems/csplib-prob030/BalancedAcademicCurriculumProblem-models/compact/O0/minion/model-bacp-25-solution000001.eprime-solution
language ESSENCE' 1.0

letting curr_Function1D be
        [1, 2, 10, 2, 9, 1, 1, 1, 8, 7, 7, 7, 7, 6, 6, 6, 6, 4, 6, 6, 6, 7, 6, 7, 6, 6, 5, 1, 2, 5, 5, 3, 5, 5, 4, 4, 2,
         3, 3, 1, 2, 2, 8, 2, 9, 10, 1, 1, 1, 1;
             int(1..50)]
