problems/csplib-prob030/BalancedAcademicCurriculumProblem-models/noch/O0/minion/model-bacp-25-solution000001.solution
language Essence 1.3

letting curr be
        function(1 --> 1, 2 --> 2, 3 --> 10, 4 --> 2, 5 --> 9, 6 --> 1, 7 --> 1, 8 --> 1, 9 --> 8, 10 --> 7, 11 --> 7,
                 12 --> 7, 13 --> 7, 14 --> 6, 15 --> 6, 16 --> 6, 17 --> 6, 18 --> 4, 19 --> 6, 20 --> 6, 21 --> 6,
                 22 --> 7, 23 --> 6, 24 --> 7, 25 --> 6, 26 --> 6, 27 --> 5, 28 --> 1, 29 --> 2, 30 --> 5, 31 --> 5,
                 32 --> 3, 33 --> 5, 34 --> 5, 35 --> 4, 36 --> 4, 37 --> 2, 38 --> 3, 39 --> 3, 40 --> 1, 41 --> 2,
                 42 --> 2, 43 --> 8, 44 --> 2, 45 --> 9, 46 --> 10, 47 --> 1, 48 --> 1, 49 --> 1, 50 --> 1)
